5
Coordinates from ORCA-job calculations/agua E -40.453597052019
  C       0.000000      0.000000      0.000000
  H       0.629118      0.629118      0.629118
  H      -0.629118     -0.629118      0.629118
  H       0.629118     -0.629118     -0.629118
  H      -0.629118      0.629118     -0.629118
5
Coordinates from ORCA-job calculations/agua E -40.453848436521
  C      -0.000000     -0.000000      0.000000
  H       0.634845      0.634845      0.634845
  H      -0.634845     -0.634845      0.634845
  H       0.634845     -0.634845     -0.634845
  H      -0.634845      0.634845     -0.634845
5
Coordinates from ORCA-job calculations/agua E -40.453849797995
  C      -0.000000     -0.000000     -0.000000
  H       0.634900      0.634900      0.634900
  H      -0.634900     -0.634900      0.634900
  H       0.634900     -0.634900     -0.634900
  H      -0.634900      0.634900     -0.634900
