9
Coordinates from ORCA-job calculations/Etanol E -154.833321773141
  C       6.166628     -4.847446      3.360928
  C       4.810767     -4.320502      2.924113
  H       6.508622     -4.309383      4.269617
  H       6.090944     -5.930710      3.590456
  H       6.910946     -4.703141      2.550191
  O       4.882973     -2.950682      2.655532
  H       4.446820     -4.873998      2.031401
  H       4.073890     -4.483753      3.737939
  H       5.293609     -2.858287      1.757677
9
Coordinates from ORCA-job calculations/Etanol E -154.835078639517
  C       6.171301     -4.860067      3.362938
  C       4.815855     -4.317877      2.914049
  H       6.520423     -4.312895      4.251922
  H       6.100055     -5.933034      3.612515
  H       6.918955     -4.739047      2.560812
  O       4.855436     -2.932505      2.640886
  H       4.450085     -4.888746      2.035566
  H       4.075956     -4.473451      3.718257
  H       5.277134     -2.820279      1.780907
9
Coordinates from ORCA-job calculations/Etanol E -154.835249402058
  C       6.170025     -4.861313      3.360588
  C       4.813873     -4.320803      2.911497
  H       6.524932     -4.307514      4.243094
  H       6.104228     -5.931099      3.618758
  H       6.919893     -4.748870      2.559309
  O       4.840938     -2.932642      2.638225
  H       4.447964     -4.898096      2.037799
  H       4.072320     -4.470030      3.713963
  H       5.291026     -2.807534      1.794619
9
Coordinates from ORCA-job calculations/Etanol E -154.835439551910
  C       6.165493     -4.858740      3.353973
  C       4.807163     -4.328094      2.907632
  H       6.531011     -4.291965      4.224754
  H       6.110974     -5.924704      3.627623
  H       6.916713     -4.759735      2.551129
  O       4.815312     -2.939147      2.631639
  H       4.441119     -4.916454      2.041133
  H       4.064475     -4.466067      3.710365
  H       5.332940     -2.792994      1.829604
9
Coordinates from ORCA-job calculations/Etanol E -154.835510211424
  C       6.162102     -4.854353      3.349341
  C       4.801378     -4.332589      2.906013
  H       6.532362     -4.280678      4.214054
  H       6.114210     -5.919021      3.630608
  H       6.911032     -4.760472      2.543078
  O       4.802014     -2.945681      2.624794
  H       4.435083     -4.926746      2.042918
  H       4.060618     -4.466666      3.711424
  H       5.366401     -2.791695      1.855622
9
Coordinates from ORCA-job calculations/Etanol E -154.835560810223
  C       6.159198     -4.848654      3.345258
  C       4.795070     -4.335880      2.905216
  H       6.531066     -4.270640      4.206555
  H       6.116467     -5.913065      3.630510
  H       6.903164     -4.755616      2.533907
  O       4.792249     -2.952445      2.615498
  H       4.428047     -4.934645      2.044863
  H       4.058913     -4.469903      3.715307
  H       5.401026     -2.797055      1.880739
9
Coordinates from ORCA-job calculations/Etanol E -154.835578556579
  C       6.158962     -4.846626      3.344581
  C       4.793014     -4.335870      2.905431
  H       6.528853     -4.269280      4.206982
  H       6.116771     -5.911602      3.628161
  H       6.900031     -4.750649      2.531035
  O       4.790717     -2.953880      2.611265
  H       4.425184     -4.935783      2.046095
  H       4.060065     -4.472119      3.718153
  H       5.411604     -2.802093      1.886152
9
Coordinates from ORCA-job calculations/Etanol E -154.835582324814
  C       6.159417     -4.846541      3.344796
  C       4.792858     -4.335346      2.905520
  H       6.527604     -4.270301      4.208507
  H       6.116720     -5.911857      3.626566
  H       6.899783     -4.748533      2.531002
  O       4.790761     -2.953519      2.610025
  H       4.424388     -4.935758      2.046887
  H       4.061166     -4.472351      3.719147
  H       5.412502     -2.803695      1.885404
9
Coordinates from ORCA-job calculations/Etanol E -154.835578300371
  C       6.159679     -4.846740      3.344926
  C       4.793034     -4.335136      2.905489
  H       6.527164     -4.270946      4.209192
  H       6.116635     -5.912173      3.625928
  H       6.900124     -4.748009      2.531342
  O       4.790848     -2.953247      2.609846
  H       4.424250     -4.935856      2.047249
  H       4.061598     -4.471996      3.719330
  H       5.411869     -2.803799      1.884551
