9
Coordinates from ORCA-job calculations/Etanol E -154.835578300371
  C           6.15967860554676     -4.84673986616783      3.34492579819965
  C           4.79303445826303     -4.33513576021856      2.90548853155341
  H           6.52716430305277     -4.27094643678648      4.20919218208250
  H           6.11663450382022     -5.91217306295061      3.62592829437836
  H           6.90012372115078     -4.74800909965666      2.53134215555392
  O           4.79084786880446     -2.95324692580427      2.60984593947660
  H           4.42424984553187     -4.93585572811891      2.04724888159405
  H           4.06159770514311     -4.47199573689641      3.71933002410717
  H           5.41186859468697     -2.80379874710024      1.88455096965432
