! B3LYP 6-31+G(d,p) D3BJ TIGHTSCF OPT FREQ
* xyz 0 1
  O           0.00000000000000      0.00000001221274      0.12722999890046
  H           0.00000000000000      0.75714073748895     -0.47416499458151
  H           0.00000000000000     -0.75714074970170     -0.47416500431895
*
