! B3LYP def2-SVP D3BJ TIGHTSCF OPT FREQ
* xyz 0 1
O   0.000000   0.000000   0.117300
H   0.000000   0.757200  -0.469200
H   0.000000  -0.757200  -0.469200
*
